pair_style eam/alloy
pair_coeff * * CuAg.eam.alloy Ag Ag
neighbor 2.0 bin 
neigh_modify delay 10 check yes 
