pair_style eam/fs
pair_coeff * * Ag-Ni.eam.fs.txt Ag
neighbor 3.0 bin 
neigh_modify delay 10 check yes 
